
Gurobi 9.5.0 (linux64) logging started Wed Nov 15 11:36:55 2023

Set parameter LogFile to value "/lustre1/scratch/348/vsc34888/JointResearch/05.Models/06.Benchmarking/D.Representative_days_based_on_RES_and_Demand/RTS24_mod1_ByStages_nc90/openStarNet_RTS24_mod1_ByStages_nc90.log"
Set parameter Method to value 2
Set parameter MIPFocus to value 1
Set parameter Presolve to value 2
Set parameter RINS to value 100
Set parameter MIPGap to value 0.01
Set parameter Threads to value 36
Set parameter TimeLimit to value 604800
Set parameter IterationLimit to value 760000000
Gurobi Optimizer version 9.5.0 build v9.5.0rc5 (linux64)
Thread count: 36 physical cores, 36 logical processors, using up to 36 threads
Optimize a model with 35102 rows, 22297 columns and 87112 nonzeros
Model fingerprint: 0x09e20c2f
Variable types: 22281 continuous, 16 integer (16 binary)
Coefficient statistics:
  Matrix range     [4e-03, 3e+04]
  Objective range  [1e+00, 1e+00]
  Bounds range     [3e-05, 2e+00]
  RHS range        [3e-05, 2e+00]
Presolve removed 22999 rows and 11265 columns
Presolve time: 0.11s
Presolved: 12103 rows, 11032 columns, 42639 nonzeros
Variable types: 11016 continuous, 16 integer (16 binary)
Found heuristic solution: objective 213.1624353
Root relaxation presolved: 12103 rows, 11032 columns, 42639 nonzeros

Root barrier log...

Ordering time: 0.00s

Barrier statistics:
 Dense cols : 16
 AA' NZ     : 6.770e+04
 Factor NZ  : 2.335e+05 (roughly 11 MB of memory)
 Factor Ops : 4.841e+06 (less than 1 second per iteration)
 Threads    : 36

                  Objective                Residual
Iter       Primal          Dual         Primal    Dual     Compl     Time
   0   7.54322204e+05 -1.17129247e+08  6.21e+00 1.29e+02  9.48e+03     0s
   1   8.43778681e+04 -2.48449480e+07  4.92e-01 6.45e-09  1.11e+03     0s
   2   4.45728653e+04 -3.00580051e+06  1.33e-01 1.90e-09  1.26e+02     0s
   3   2.65437187e+04 -4.84867583e+05  7.71e-03 2.97e-10  1.78e+01     0s
   4   1.15618092e+04 -9.89886112e+04  3.35e-04 4.74e-11  3.79e+00     0s
   5   4.00464016e+03 -2.44760827e+04  1.04e-04 9.93e-12  9.77e-01     0s
   6   1.01135489e+03 -4.23089818e+03  1.57e-05 1.85e-12  1.80e-01     0s
   7   3.73697616e+02 -1.37778386e+03  7.19e-07 9.09e-13  6.01e-02     0s
   8   2.58228223e+02 -6.48339547e+02  2.91e-07 9.09e-13  3.11e-02     0s
   9   2.05513534e+02 -2.14629741e+02  1.68e-07 1.82e-12  1.44e-02     0s
  10   1.80456766e+02 -1.64572360e+01  1.24e-07 3.64e-12  6.75e-03     0s
  11   1.44683682e+02  3.99909308e+01  6.69e-08 9.09e-13  3.59e-03     0s
  12   1.30756391e+02  7.73150048e+01  4.55e-08 1.82e-12  1.83e-03     0s
  13   1.16540346e+02  9.33168582e+01  2.31e-08 9.09e-13  7.96e-04     0s
  14   1.08841038e+02  9.74915062e+01  1.00e-08 9.09e-13  3.89e-04     0s
  15   1.07768453e+02  9.89780535e+01  8.20e-09 1.82e-12  3.01e-04     0s
  16   1.05714836e+02  1.00612748e+02  4.71e-09 9.09e-13  1.75e-04     0s
  17   1.04690472e+02  1.01671380e+02  3.05e-09 1.82e-12  1.04e-04     0s
  18   1.03640384e+02  1.02143591e+02  1.21e-09 1.82e-12  5.13e-05     0s
  19   1.03276242e+02  1.02539341e+02  6.17e-10 9.09e-13  2.53e-05     0s
  20   1.03105433e+02  1.02727350e+02  3.54e-10 1.82e-12  1.30e-05     0s
  21   1.02961328e+02  1.02791446e+02  1.24e-10 1.82e-12  5.83e-06     0s
  22   1.02905347e+02  1.02864753e+02  1.42e-10 1.82e-12  1.39e-06     0s
  23   1.02885506e+02  1.02876139e+02  3.17e-10 9.09e-13  3.21e-07     0s
  24   1.02883885e+02  1.02878940e+02  1.77e-10 9.09e-13  1.70e-07     0s
  25   1.02882912e+02  1.02881584e+02  4.23e-10 9.09e-13  4.55e-08     0s
  26   1.02882081e+02  1.02881900e+02  7.11e-10 3.64e-12  6.21e-09     0s
  27   1.02881922e+02  1.02881913e+02  6.39e-09 1.82e-12  3.26e-10     0s
  28   1.02881918e+02  1.02881918e+02  5.22e-10 3.64e-12  3.27e-13     0s

Barrier solved model in 28 iterations and 0.48 seconds (0.45 work units)
Optimal objective 1.02881918e+02


Root relaxation: objective 1.028819e+02, 1527 iterations, 0.32 seconds (0.23 work units)

    Nodes    |    Current Node    |     Objective Bounds      |     Work
 Expl Unexpl |  Obj  Depth IntInf | Incumbent    BestBd   Gap | It/Node Time

     0     0  102.88192    0   15  213.16244  102.88192  51.7%     -    0s
H    0     0                     128.9463708  102.88192  20.2%     -    0s
     0     0  105.33298    0   10  128.94637  105.33298  18.3%     -    1s
     0     0  105.50872    0   11  128.94637  105.50872  18.2%     -    1s
     0     0  105.50872    0   11  128.94637  105.50872  18.2%     -    1s
     0     0  106.49673    0   11  128.94637  106.49673  17.4%     -    1s
     0     0  106.60302    0   11  128.94637  106.60302  17.3%     -    2s
     0     0  106.60322    0   11  128.94637  106.60322  17.3%     -    2s
     0     0  107.28063    0    9  128.94637  107.28063  16.8%     -    2s
     0     0  107.34427    0    9  128.94637  107.34427  16.8%     -    2s
     0     0  107.34445    0   10  128.94637  107.34445  16.8%     -    2s
H    0     0                     117.4484780  107.34445  8.60%     -    2s
     0     0  107.45875    0    8  117.44848  107.45875  8.51%     -    2s
     0     0  107.46305    0    9  117.44848  107.46305  8.50%     -    2s
     0     0  107.46580    0    9  117.44848  107.46580  8.50%     -    2s
     0     0  107.46580    0    9  117.44848  107.46580  8.50%     -    2s
     0     0  107.53429    0    9  117.44848  107.53429  8.44%     -    3s
     0     2  107.53429    0    9  117.44848  107.53429  8.44%     -    5s

Cutting planes:
  Implied bound: 94
  MIR: 675
  Relax-and-lift: 1

Explored 84 nodes (19370 simplex iterations) in 5.94 seconds (6.66 work units)
Thread count was 36 (of 36 available processors)

Solution count 3: 117.448 128.946 213.162 

Optimal solution found (tolerance 1.00e-02)
Best objective 1.174484780357e+02, best bound 1.169319403365e+02, gap 0.4398%

Gurobi 9.5.0 (linux64) logging started Wed Nov 15 11:37:05 2023

Set parameter LogFile to value "/lustre1/scratch/348/vsc34888/JointResearch/05.Models/06.Benchmarking/D.Representative_days_based_on_RES_and_Demand/RTS24_mod1_ByStages_nc90/openStarNet_RTS24_mod1_ByStages_nc90.log"
Set parameter Method to value 2
Set parameter MIPFocus to value 1
Set parameter Presolve to value 2
Set parameter RINS to value 100
Set parameter MIPGap to value 0.01
Set parameter Threads to value 36
Set parameter TimeLimit to value 604800
Set parameter IterationLimit to value 760000000
No parameters matching 'relax_integrality' found
Gurobi Optimizer version 9.5.0 build v9.5.0rc5 (linux64)
Thread count: 36 physical cores, 36 logical processors, using up to 36 threads
Optimize a model with 35102 rows, 22281 columns and 81272 nonzeros
Model fingerprint: 0x2ab60fe4
Coefficient statistics:
  Matrix range     [4e-03, 3e+04]
  Objective range  [1e+00, 1e+00]
  Bounds range     [3e-05, 2e+00]
  RHS range        [3e-05, 3e+01]
Presolve removed 26730 rows and 9809 columns
Presolve time: 0.03s
Presolved: 8372 rows, 12563 columns, 31218 nonzeros

Ordering time: 0.00s

Barrier statistics:
 AA' NZ     : 2.174e+04
 Factor NZ  : 9.051e+04 (roughly 8 MB of memory)
 Factor Ops : 1.364e+06 (less than 1 second per iteration)
 Threads    : 36

                  Objective                Residual
Iter       Primal          Dual         Primal    Dual     Compl     Time
   0   8.60413520e+05 -3.15138933e+07  1.43e+01 4.61e+01  3.12e+03     0s
   1   1.18538405e+05 -5.13015720e+06  1.52e+00 7.13e-13  3.49e+02     0s
   2   3.22728951e+04 -7.19876198e+05  1.46e-01 7.74e-13  3.93e+01     0s
   3   1.17826358e+04 -9.62576827e+04  5.86e-03 3.62e-13  5.06e+00     0s
   4   1.77146254e+03 -1.15123054e+04  4.59e-04 2.74e-13  6.18e-01     0s
   5   6.01854455e+02 -2.96365193e+03  6.88e-05 2.03e-13  1.66e-01     0s
   6   3.42985284e+02 -1.10265603e+03  1.11e-05 2.27e-13  6.72e-02     0s
   7   2.57200786e+02 -4.26820271e+02  5.36e-06 2.27e-13  3.18e-02     0s
   8   1.93828581e+02 -1.30127615e+02  2.51e-06 1.14e-13  1.51e-02     0s
   9   1.48500772e+02  4.40800060e+00  8.63e-07 2.27e-13  6.70e-03     0s
  10   1.24086004e+02  8.48140473e+01  1.40e-07 1.71e-13  1.83e-03     0s
  11   1.19516032e+02  1.11580983e+02  3.94e-08 1.71e-13  3.69e-04     0s
  12   1.18002780e+02  1.15871983e+02  9.62e-09 2.27e-13  9.91e-05     0s
  13   1.17539428e+02  1.16805206e+02  1.36e-09 2.27e-13  3.41e-05     0s
  14   1.17455757e+02  1.17297032e+02  4.88e-10 2.27e-13  7.38e-06     0s
  15   1.17448933e+02  1.17432007e+02  8.65e-11 2.27e-13  7.87e-07     0s
  16   1.17448505e+02  1.17448357e+02  4.47e-11 1.14e-13  6.86e-09     0s
  17   1.17448478e+02  1.17448478e+02  4.27e-11 2.27e-13  3.23e-13     0s

Barrier solved model in 17 iterations and 0.15 seconds (0.11 work units)
Optimal objective 1.17448478e+02

Crossover log...

    1134 DPushes remaining with DInf 0.0000000e+00                 0s
       0 DPushes remaining with DInf 0.0000000e+00                 0s

     334 PPushes remaining with PInf 0.0000000e+00                 0s
       0 PPushes remaining with PInf 0.0000000e+00                 0s

  Push phase complete: Pinf 0.0000000e+00, Dinf 4.7870138e-13      0s

Iteration    Objective       Primal Inf.    Dual Inf.      Time
     377    1.1744848e+02   0.000000e+00   0.000000e+00      0s

Use crossover to convert LP symmetric solution to basic solution...
Crossover log...

       0 DPushes remaining with DInf 0.0000000e+00                 0s

     185 PPushes remaining with PInf 0.0000000e+00                 0s
       0 PPushes remaining with PInf 0.0000000e+00                 0s

  Push phase complete: Pinf 0.0000000e+00, Dinf 5.4389069e-13      0s

Iteration    Objective       Primal Inf.    Dual Inf.      Time
     593    1.1744848e+02   0.000000e+00   0.000000e+00      0s

Solved in 593 iterations and 0.23 seconds (0.15 work units)
Optimal objective  1.174484780e+02

Gurobi 9.5.0 (linux64) logging started Wed Nov 15 17:03:12 2023

Set parameter LogFile to value "/lustre1/scratch/348/vsc34888/JointResearch/05.Models/06.Benchmarking/D.Representative_days_based_on_RES_and_Demand/RTS24_mod1_ByStages_nc90/openStarNet_RTS24_mod1_ByStages_nc90.log"
Set parameter Method to value 2
Set parameter MIPFocus to value 1
Set parameter Presolve to value 2
Set parameter RINS to value 100
Set parameter MIPGap to value 0.01
Set parameter Threads to value 36
Set parameter TimeLimit to value 604800
Set parameter IterationLimit to value 760000000
Gurobi Optimizer version 9.5.0 build v9.5.0rc5 (linux64)
Thread count: 36 physical cores, 36 logical processors, using up to 36 threads
Optimize a model with 43474 rows, 24413 columns and 116437 nonzeros
Model fingerprint: 0x63959ef3
Variable types: 24374 continuous, 39 integer (39 binary)
Coefficient statistics:
  Matrix range     [4e-03, 3e+04]
  Objective range  [1e+00, 1e+00]
  Bounds range     [3e-05, 2e+00]
  RHS range        [3e-05, 2e+00]
Presolve removed 22726 rows and 10992 columns
Presolve time: 0.21s
Presolved: 20748 rows, 13421 columns, 72259 nonzeros
Variable types: 13382 continuous, 39 integer (39 binary)
Found heuristic solution: objective 213.1624353
Root relaxation presolved: 20748 rows, 13421 columns, 72259 nonzeros

Root barrier log...

Ordering time: 0.01s

Barrier statistics:
 Dense cols : 39
 AA' NZ     : 1.535e+05
 Factor NZ  : 5.145e+05 (roughly 18 MB of memory)
 Factor Ops : 1.620e+07 (less than 1 second per iteration)
 Threads    : 36

                  Objective                Residual
Iter       Primal          Dual         Primal    Dual     Compl     Time
   0   5.86557224e+05 -3.28672109e+07  4.04e+00 1.04e+02  2.11e+03     1s
   1   7.48167502e+04 -8.27070916e+06  3.68e-01 1.78e-09  2.64e+02     1s
   2   2.69794534e+04 -1.15534392e+06  1.88e-02 8.43e-10  2.89e+01     1s
   3   1.05794776e+04 -9.85074753e+04  3.90e-04 5.08e-11  2.58e+00     1s
   4   1.00895986e+03 -1.13205312e+04  9.20e-06 7.03e-12  2.91e-01     1s
   5   4.64917123e+02 -5.13704473e+03  8.18e-07 3.06e-12  1.32e-01     1s
   6   3.34758183e+02 -2.54833493e+03  8.85e-08 1.60e-12  6.81e-02     1s
   7   2.64400446e+02 -7.97262492e+02  3.79e-08 5.04e-13  2.51e-02     1s
   8   1.90677493e+02 -1.92829424e+02  1.50e-08 4.55e-13  9.06e-03     1s
   9   1.54654368e+02 -5.75513562e+01  7.86e-09 4.55e-13  5.02e-03     1s
  10   1.26321496e+02  2.63417677e+01  3.21e-09 4.55e-13  2.36e-03     1s
  11   1.13089868e+02  8.17647417e+01  1.28e-09 4.55e-13  7.40e-04     1s
  12   1.08247457e+02  9.13598973e+01  6.70e-10 4.55e-13  3.99e-04     1s
  13   1.06885522e+02  9.49808199e+01  4.90e-10 4.55e-13  2.81e-04     1s
  14   1.05718917e+02  9.76979116e+01  3.46e-10 4.55e-13  1.90e-04     1s
  15   1.04758592e+02  9.87380875e+01  2.22e-10 4.55e-13  1.42e-04     1s
  16   1.04006848e+02  1.00033570e+02  1.31e-10 4.55e-13  9.39e-05     1s
  17   1.03734865e+02  1.01112091e+02  9.77e-11 4.55e-13  6.20e-05     1s
  18   1.03461750e+02  1.02030858e+02  6.65e-11 4.55e-13  3.38e-05     1s
  19   1.03346776e+02  1.02159846e+02  5.33e-11 4.55e-13  2.81e-05     1s
  20   1.03116250e+02  1.02608022e+02  2.68e-11 4.55e-13  1.20e-05     1s
  21   1.02936379e+02  1.02786179e+02  3.10e-11 4.55e-13  3.55e-06     1s
  22   1.02899858e+02  1.02838134e+02  9.14e-11 4.55e-13  1.46e-06     1s
  23   1.02895295e+02  1.02851685e+02  6.71e-11 4.55e-13  1.03e-06     1s
  24   1.02884150e+02  1.02864865e+02  5.56e-11 4.55e-13  4.56e-07     1s
  25   1.02883259e+02  1.02873603e+02  3.39e-11 9.95e-13  2.28e-07     1s
  26   1.02882648e+02  1.02875591e+02  1.46e-09 9.52e-13  1.67e-07     1s
  27   1.02882187e+02  1.02880977e+02  1.77e-09 4.55e-13  2.86e-08     1s
  28   1.02881946e+02  1.02881236e+02  2.84e-09 4.55e-13  1.68e-08     1s
  29   1.02881919e+02  1.02881805e+02  2.58e-09 1.03e-12  2.70e-09     1s
  30   1.02881918e+02  1.02881915e+02  4.60e-10 4.55e-13  7.46e-11     1s
  31   1.02881918e+02  1.02881918e+02  7.85e-10 6.82e-13  7.47e-14     1s

Barrier solved model in 31 iterations and 0.99 seconds (0.81 work units)
Optimal objective 1.02881918e+02


Root relaxation: objective 1.028819e+02, 1770 iterations, 0.75 seconds (0.45 work units)

    Nodes    |    Current Node    |     Objective Bounds      |     Work
 Expl Unexpl |  Obj  Depth IntInf | Incumbent    BestBd   Gap | It/Node Time

     0     0  102.88192    0   15  213.16244  102.88192  51.7%     -    1s
H    0     0                     128.9463708  102.88192  20.2%     -    1s
     0     0  105.43595    0   11  128.94637  105.43595  18.2%     -    2s
     0     0  105.74590    0   11  128.94637  105.74590  18.0%     -    2s
     0     0  105.78087    0   11  128.94637  105.78087  18.0%     -    2s
     0     0  106.70198    0   11  128.94637  106.70198  17.3%     -    3s
     0     0  106.74242    0    9  128.94637  106.74242  17.2%     -    3s
     0     0  106.74249    0    9  128.94637  106.74249  17.2%     -    3s
     0     0  107.27041    0   10  128.94637  107.27041  16.8%     -    3s
     0     0  107.32950    0   10  128.94637  107.32950  16.8%     -    4s
     0     0  107.35359    0   11  128.94637  107.35359  16.7%     -    4s
     0     0  107.35497    0   11  128.94637  107.35497  16.7%     -    4s
     0     0  107.35543    0   11  128.94637  107.35543  16.7%     -    4s
     0     0  107.40546    0    9  128.94637  107.40546  16.7%     -    4s
     0     0  107.42144    0    9  128.94637  107.42144  16.7%     -    4s
     0     0  107.42144    0    9  128.94637  107.42144  16.7%     -    4s
     0     0  107.42833    0    9  128.94637  107.42833  16.7%     -    5s
H    0     0                     117.4484780  107.42833  8.53%     -    7s
     0     2  107.42833    0    9  117.44848  107.42833  8.53%     -    7s
   137    22     cutoff   10       117.44848  113.73652  3.16%   196   21s

Cutting planes:
  Implied bound: 76
  MIR: 591
  Relax-and-lift: 2

Explored 190 nodes (36680 simplex iterations) in 21.28 seconds (22.79 work units)
Thread count was 36 (of 36 available processors)

Solution count 3: 117.448 128.946 213.162 

Optimal solution found (tolerance 1.00e-02)
Best objective 1.174484780357e+02, best bound 1.162934995133e+02, gap 0.9834%

Gurobi 9.5.0 (linux64) logging started Wed Nov 15 17:03:39 2023

Set parameter LogFile to value "/lustre1/scratch/348/vsc34888/JointResearch/05.Models/06.Benchmarking/D.Representative_days_based_on_RES_and_Demand/RTS24_mod1_ByStages_nc90/openStarNet_RTS24_mod1_ByStages_nc90.log"
Set parameter Method to value 2
Set parameter MIPFocus to value 1
Set parameter Presolve to value 2
Set parameter RINS to value 100
Set parameter MIPGap to value 0.01
Set parameter Threads to value 36
Set parameter TimeLimit to value 604800
Set parameter IterationLimit to value 760000000
No parameters matching 'relax_integrality' found
Gurobi Optimizer version 9.5.0 build v9.5.0rc5 (linux64)
Thread count: 36 physical cores, 36 logical processors, using up to 36 threads
Optimize a model with 43474 rows, 24374 columns and 102202 nonzeros
Model fingerprint: 0x84f53907
Coefficient statistics:
  Matrix range     [4e-03, 3e+04]
  Objective range  [1e+00, 1e+00]
  Bounds range     [3e-05, 2e+00]
  RHS range        [3e-05, 3e+01]
Presolve removed 35011 rows and 11902 columns
Presolve time: 0.05s
Presolved: 8463 rows, 12654 columns, 31491 nonzeros

Ordering time: 0.00s

Barrier statistics:
 AA' NZ     : 2.219e+04
 Factor NZ  : 9.212e+04 (roughly 8 MB of memory)
 Factor Ops : 1.397e+06 (less than 1 second per iteration)
 Threads    : 36

                  Objective                Residual
Iter       Primal          Dual         Primal    Dual     Compl     Time
   0   8.84305303e+05 -3.18422049e+07  1.47e+01 4.60e+01  3.17e+03     0s
   1   1.19687696e+05 -5.26347303e+06  1.54e+00 6.01e-13  3.55e+02     0s
   2   3.24910218e+04 -7.42648630e+05  1.49e-01 7.51e-13  4.02e+01     0s
   3   1.18980765e+04 -9.66654495e+04  5.93e-03 3.57e-13  5.04e+00     0s
   4   1.93677226e+03 -1.15434843e+04  5.46e-04 5.01e-13  6.22e-01     0s
   5   6.27459174e+02 -3.00842877e+03  8.25e-05 2.27e-13  1.68e-01     0s
   6   3.46907111e+02 -1.15485759e+03  1.33e-05 2.03e-13  6.93e-02     0s
   7   2.58916319e+02 -4.43679551e+02  6.33e-06 2.27e-13  3.24e-02     0s
   8   1.94763068e+02 -1.26004242e+02  2.96e-06 2.27e-13  1.48e-02     0s
   9   1.48714349e+02  5.75364294e+00  1.02e-06 1.14e-13  6.60e-03     0s
  10   1.24107199e+02  8.43217571e+01  1.65e-07 1.14e-13  1.84e-03     0s
  11   1.19560177e+02  1.11840316e+02  4.70e-08 1.14e-13  3.56e-04     0s
  12   1.17994382e+02  1.16243100e+02  1.14e-08 2.27e-13  8.08e-05     0s
  13   1.17545154e+02  1.17135792e+02  1.66e-09 2.27e-13  1.89e-05     0s
  14   1.17459947e+02  1.17330062e+02  5.72e-10 1.71e-13  5.99e-06     0s
  15   1.17449204e+02  1.17434060e+02  1.31e-10 2.27e-13  6.99e-07     0s
  16   1.17448497e+02  1.17448396e+02  1.07e-10 2.27e-13  4.67e-09     0s
  17   1.17448478e+02  1.17448478e+02  3.26e-11 1.14e-13  9.27e-14     0s

Barrier solved model in 17 iterations and 0.17 seconds (0.11 work units)
Optimal objective 1.17448478e+02

Crossover log...

    1130 DPushes remaining with DInf 0.0000000e+00                 0s
       0 DPushes remaining with DInf 0.0000000e+00                 0s

     334 PPushes remaining with PInf 0.0000000e+00                 0s
       0 PPushes remaining with PInf 0.0000000e+00                 0s

  Push phase complete: Pinf 0.0000000e+00, Dinf 5.5025301e-13      0s

Iteration    Objective       Primal Inf.    Dual Inf.      Time
     373    1.1744848e+02   0.000000e+00   0.000000e+00      0s

Use crossover to convert LP symmetric solution to basic solution...
Crossover log...

       0 DPushes remaining with DInf 0.0000000e+00                 0s

     189 PPushes remaining with PInf 0.0000000e+00                 0s
       0 PPushes remaining with PInf 0.0000000e+00                 0s

  Push phase complete: Pinf 0.0000000e+00, Dinf 5.3746259e-13      0s

Iteration    Objective       Primal Inf.    Dual Inf.      Time
     593    1.1744848e+02   0.000000e+00   0.000000e+00      0s

Solved in 593 iterations and 0.26 seconds (0.16 work units)
Optimal objective  1.174484780e+02

Gurobi 9.5.0 (linux64) logging started Thu Nov 16 16:02:22 2023

Set parameter LogFile to value "/lustre1/scratch/348/vsc34888/JointResearch/05.Models/06.Benchmarking/D.Representative_days_based_on_RES_and_Demand/RTS24_mod1_ByStages_nc90/openStarNet_RTS24_mod1_ByStages_nc90.log"
Set parameter Method to value 2
Set parameter MIPFocus to value 1
Set parameter Presolve to value 2
Set parameter RINS to value 100
Set parameter MIPGap to value 0.01
Set parameter Threads to value 36
Set parameter TimeLimit to value 604800
Set parameter IterationLimit to value 760000000
Gurobi Optimizer version 9.5.0 build v9.5.0rc5 (linux64)
Thread count: 36 physical cores, 36 logical processors, using up to 36 threads
Optimize a model with 53660 rows, 26897 columns and 153400 nonzeros
Model fingerprint: 0x4035c4fe
Variable types: 26827 continuous, 70 integer (70 binary)
Coefficient statistics:
  Matrix range     [4e-03, 3e+04]
  Objective range  [1e+00, 1e+00]
  Bounds range     [4e-05, 2e+00]
  RHS range        [4e-05, 2e+00]
Presolve removed 21628 rows and 10625 columns
Presolve time: 0.32s
Presolved: 32032 rows, 16272 columns, 111752 nonzeros
Variable types: 16202 continuous, 70 integer (70 binary)
Found heuristic solution: objective 469.5385901
Root relaxation presolved: 32032 rows, 16272 columns, 111752 nonzeros

Root barrier log...

Ordering time: 0.01s

Barrier statistics:
 Dense cols : 70
 AA' NZ     : 3.279e+05
 Factor NZ  : 1.049e+06 (roughly 30 MB of memory)
 Factor Ops : 5.657e+07 (less than 1 second per iteration)
 Threads    : 36

                  Objective                Residual
Iter       Primal          Dual         Primal    Dual     Compl     Time
   0   5.07380134e+05 -2.17342191e+07  8.80e+00 7.83e+01  1.13e+03     1s
   1   6.05042673e+04 -6.90735216e+06  6.36e-01 6.25e-10  1.45e+02     1s
   2   2.19948340e+04 -9.32301715e+05  2.64e-02 3.30e-10  1.64e+01     1s
   3   5.19344977e+03 -5.84816410e+04  2.36e-04 1.28e-11  1.07e+00     1s
   4   6.84661003e+02 -6.97008702e+03  5.39e-06 1.26e-12  1.29e-01     1s
   5   4.72774313e+02 -2.23569693e+03  1.30e-06 4.55e-13  4.57e-02     1s
   6   3.51679596e+02 -8.31419293e+02  5.28e-07 4.55e-13  2.00e-02     1s
   7   2.92523489e+02 -3.37202265e+02  3.52e-07 4.55e-13  1.06e-02     1s
   8   2.04250872e+02 -7.56658230e+00  1.71e-07 4.55e-13  3.57e-03     1s
   9   1.70525750e+02  5.29301191e+01  1.04e-07 4.55e-13  1.98e-03     1s
  10   1.40009681e+02  9.00653840e+01  4.41e-08 2.27e-13  8.42e-04     1s
  11   1.29732817e+02  1.03120508e+02  2.40e-08 2.27e-13  4.49e-04     1s
  12   1.25390094e+02  1.10062224e+02  1.56e-08 2.27e-13  2.58e-04     1s
  13   1.22442108e+02  1.12821868e+02  9.77e-09 2.27e-13  1.62e-04     1s
  14   1.20556429e+02  1.14544742e+02  5.99e-09 2.27e-13  1.01e-04     1s
  15   1.19688395e+02  1.15676456e+02  4.27e-09 2.27e-13  6.77e-05     1s
  16   1.18420214e+02  1.16824517e+02  1.81e-09 4.55e-13  2.69e-05     1s
  17   1.18073271e+02  1.17159519e+02  1.15e-09 2.27e-13  1.54e-05     1s
  18   1.17721306e+02  1.17380097e+02  5.03e-10 4.55e-13  5.75e-06     1s
  19   1.17560009e+02  1.17438019e+02  2.54e-10 4.55e-13  2.06e-06     1s
  20   1.17502018e+02  1.17443840e+02  5.67e-10 2.27e-13  9.81e-07     1s
  21   1.17457695e+02  1.17445864e+02  3.40e-10 4.55e-13  2.00e-07     1s
  22   1.17446945e+02  1.17446653e+02  5.82e-10 2.27e-13  4.93e-09     1s
  23   1.17446722e+02  1.17446722e+02  3.33e-10 4.55e-13  4.97e-12     1s

Barrier solved model in 23 iterations and 1.23 seconds (1.17 work units)
Optimal objective 1.17446722e+02


Root relaxation: objective 1.174467e+02, 2711 iterations, 0.91 seconds (0.60 work units)

    Nodes    |    Current Node    |     Objective Bounds      |     Work
 Expl Unexpl |  Obj  Depth IntInf | Incumbent    BestBd   Gap | It/Node Time

     0     0  117.44672    0   21  469.53859  117.44672  75.0%     -    2s
H    0     0                     206.5147989  117.44672  43.1%     -    2s
     0     0  119.60459    0   24  206.51480  119.60459  42.1%     -    3s
H    0     0                     198.3097251  119.60459  39.7%     -    4s
     0     0  119.62755    0   24  198.30973  119.62755  39.7%     -    4s
     0     0  119.62950    0   24  198.30973  119.62950  39.7%     -    4s
     0     0  119.62989    0   24  198.30973  119.62989  39.7%     -    4s
     0     0  119.63006    0   24  198.30973  119.63006  39.7%     -    4s
     0     0  120.35184    0   25  198.30973  120.35184  39.3%     -    5s
     0     0  120.56645    0   24  198.30973  120.56645  39.2%     -    6s
     0     0  120.57405    0   25  198.30973  120.57405  39.2%     -    6s
     0     0  120.57491    0   26  198.30973  120.57491  39.2%     -    6s
     0     0  120.57498    0   26  198.30973  120.57498  39.2%     -    6s
     0     0  120.89149    0   22  198.30973  120.89149  39.0%     -    7s
     0     0  120.92139    0   24  198.30973  120.92139  39.0%     -    7s
     0     0  120.92916    0   24  198.30973  120.92916  39.0%     -    8s
     0     0  120.93371    0   24  198.30973  120.93371  39.0%     -    8s
     0     0  120.93477    0   23  198.30973  120.93477  39.0%     -    8s
     0     0  120.93499    0   24  198.30973  120.93499  39.0%     -    8s
H    0     0                     183.2771852  121.11167  33.9%     -    8s
     0     0  121.11167    0   24  183.27719  121.11167  33.9%     -    9s
     0     0  121.16978    0   23  183.27719  121.16978  33.9%     -    9s
     0     0  121.17843    0   23  183.27719  121.17843  33.9%     -    9s
     0     0  121.17916    0   22  183.27719  121.17916  33.9%     -    9s
     0     0  121.18084    0   22  183.27719  121.18084  33.9%     -    9s
     0     0  121.18104    0   23  183.27719  121.18104  33.9%     -    9s
     0     0  121.43893    0   25  183.27719  121.43893  33.7%     -   10s
H    0     0                     158.2027223  121.43893  23.2%     -   14s
H    0     0                     155.3195404  121.43893  21.8%     -   80s
     0     2  121.43893    0   25  155.31954  121.43893  21.8%     -   81s
    15    32  128.33834    4   20  155.31954  122.69706  21.0%  2184   85s
H   30    32                     148.8623506  125.34286  15.8%  1900   85s
H   63   100                     134.6011106  125.35950  6.87%  1608  162s
    99    94  133.99026    7   16  134.60111  125.37510  6.85%  1346  204s
   135    82  134.17715    8   17  134.60111  125.76292  6.57%  1131  205s
   256    97  129.41728    7   10  134.60111  126.26553  6.19%   904  212s
   299    94  131.07728    8   10  134.60111  126.26553  6.19%   897  224s
   353    93     cutoff    9       134.60111  126.26553  6.19%   872  228s
   398   102  129.05767    8   17  134.60111  126.26553  6.19%   862  243s
   471    92  129.06782    9   15  134.60111  126.26553  6.19%   827  264s
   527    91  130.07592   10   17  134.60111  126.26553  6.19%   808  265s
  1065    23     cutoff   12       134.60111  127.25417  5.46%   630  271s

Cutting planes:
  Gomory: 1
  Implied bound: 11
  MIR: 1757

Explored 1203 nodes (763957 simplex iterations) in 273.26 seconds (446.09 work units)
Thread count was 36 (of 36 available processors)

Solution count 8: 134.601 148.862 155.32 ... 469.539

Optimal solution found (tolerance 1.00e-02)
Best objective 1.346011106215e+02, best bound 1.346011106215e+02, gap 0.0000%

Gurobi 9.5.0 (linux64) logging started Thu Nov 16 16:07:03 2023

Set parameter LogFile to value "/lustre1/scratch/348/vsc34888/JointResearch/05.Models/06.Benchmarking/D.Representative_days_based_on_RES_and_Demand/RTS24_mod1_ByStages_nc90/openStarNet_RTS24_mod1_ByStages_nc90.log"
Set parameter Method to value 2
Set parameter MIPFocus to value 1
Set parameter Presolve to value 2
Set parameter RINS to value 100
Set parameter MIPGap to value 0.01
Set parameter Threads to value 36
Set parameter TimeLimit to value 604800
Set parameter IterationLimit to value 760000000
No parameters matching 'relax_integrality' found
Gurobi Optimizer version 9.5.0 build v9.5.0rc5 (linux64)
Thread count: 36 physical cores, 36 logical processors, using up to 36 threads
Optimize a model with 53660 rows, 26827 columns and 127850 nonzeros
Model fingerprint: 0x9ee9f5a7
Coefficient statistics:
  Matrix range     [4e-03, 3e+04]
  Objective range  [1e+00, 1e+00]
  Bounds range     [4e-05, 2e+00]
  RHS range        [4e-05, 4e+01]
Presolve removed 45698 rows and 14857 columns
Presolve time: 0.05s
Presolved: 7962 rows, 12152 columns, 28896 nonzeros

Ordering time: 0.00s

Barrier statistics:
 AA' NZ     : 2.161e+04
 Factor NZ  : 9.668e+04 (roughly 8 MB of memory)
 Factor Ops : 1.512e+06 (less than 1 second per iteration)
 Threads    : 36

                  Objective                Residual
Iter       Primal          Dual         Primal    Dual     Compl     Time
   0   7.68124917e+05 -2.66098622e+07  9.71e+00 4.47e+01  2.66e+03     0s
   1   1.01169448e+05 -4.19321340e+06  8.85e-01 6.86e-13  2.71e+02     0s
   2   3.04481357e+04 -5.47579839e+05  5.54e-02 9.24e-13  2.81e+01     0s
   3   1.11911835e+04 -6.49578370e+04  1.89e-03 3.67e-13  3.48e+00     0s
   4   1.41421729e+03 -9.81069952e+03  1.07e-04 2.27e-13  5.12e-01     0s
   5   5.48506808e+02 -2.71025363e+03  1.65e-05 1.41e-13  1.49e-01     0s
   6   3.39989627e+02 -7.67393349e+02  2.69e-06 1.14e-13  5.05e-02     0s
   7   2.62571383e+02 -2.33221322e+02  1.25e-06 1.14e-13  2.26e-02     0s
   8   2.26427194e+02 -5.07712270e+01  8.28e-07 1.14e-13  1.26e-02     0s
   9   1.73112194e+02  6.26079567e+01  3.49e-07 1.71e-13  5.04e-03     0s
  10   1.45055255e+02  1.22955252e+02  8.53e-08 2.27e-13  1.01e-03     0s
  11   1.37755430e+02  1.31943911e+02  2.43e-08 1.71e-13  2.65e-04     0s
  12   1.35599005e+02  1.33685817e+02  7.58e-09 1.14e-13  8.72e-05     0s
  13   1.34800051e+02  1.34295773e+02  1.45e-09 1.14e-13  2.30e-05     0s
  14   1.34612453e+02  1.34548628e+02  7.14e-11 2.27e-13  2.91e-06     0s
  15   1.34601541e+02  1.34599666e+02  1.90e-11 2.27e-13  8.55e-08     0s
  16   1.34601111e+02  1.34601109e+02  7.39e-11 2.27e-13  1.18e-10     0s
  17   1.34601111e+02  1.34601111e+02  1.32e-10 1.14e-13  1.77e-16     0s

Barrier solved model in 17 iterations and 0.15 seconds (0.12 work units)
Optimal objective 1.34601111e+02

Crossover log...

    1108 DPushes remaining with DInf 0.0000000e+00                 0s
       0 DPushes remaining with DInf 0.0000000e+00                 0s

     360 PPushes remaining with PInf 0.0000000e+00                 0s
       0 PPushes remaining with PInf 0.0000000e+00                 0s

  Push phase complete: Pinf 0.0000000e+00, Dinf 5.6995655e-13      0s

Iteration    Objective       Primal Inf.    Dual Inf.      Time
     391    1.3460111e+02   0.000000e+00   0.000000e+00      0s

Use crossover to convert LP symmetric solution to basic solution...
Crossover log...

     216 PPushes remaining with PInf 0.0000000e+00                 0s
       0 PPushes remaining with PInf 0.0000000e+00                 0s

  Push phase complete: Pinf 0.0000000e+00, Dinf 5.3246210e-13      0s

Iteration    Objective       Primal Inf.    Dual Inf.      Time
     610    1.3460111e+02   0.000000e+00   0.000000e+00      0s

Solved in 610 iterations and 0.23 seconds (0.16 work units)
Optimal objective  1.346011106e+02
